NAME: australia-road-km-n2-k1
TYPE: CVRP
DIMENSION: 2
EDGE_WEIGHT_TYPE: EXPLICIT
EDGE_WEIGHT_FORMAT: FULL_MATRIX
EDGE_WEIGHT_UNIT_OF_MEASUREMENT: km
CAPACITY: 5
NODE_COORD_SECTION
1 0.0 0.0
2 0.0 0.0
EDGE_WEIGHT_SECTION
0.000 0.000 
0.000 0.000 
DEMAND_SECTION
1 0
2 1
DEPOT_SECTION
1
-1
EOF
